
******************************************************************************
This program contains Ipopt, a library for large-scale nonlinear optimization.
 Ipopt is released as open source code under the Eclipse Public License (EPL).
         For more information visit http://projects.coin-or.org/Ipopt

This version of Ipopt was compiled from source code available at
    https://github.com/IDAES/Ipopt as part of the Institute for the Design of
    Advanced Energy Systems Process Systems Engineering Framework (IDAES PSE
    Framework) Copyright (c) 2018-2019. See https://github.com/IDAES/idaes-pse.

This version of Ipopt was compiled using HSL, a collection of Fortran codes
    for large-scale scientific computation.  All technical papers, sales and
    publicity material resulting from use of the HSL codes within IPOPT must
    contain the following acknowledgement:
        HSL, a collection of Fortran codes for large-scale scientific
        computation. See http://www.hsl.rl.ac.uk.
******************************************************************************

This is Ipopt version 3.13.2, running with linear solver ma27.

Number of nonzeros in equality constraint Jacobian...:     1782
Number of nonzeros in inequality constraint Jacobian.:        0
Number of nonzeros in Lagrangian Hessian.............:     3193

Total number of variables............................:      620
                     variables with only lower bounds:      124
                variables with lower and upper bounds:      434
                     variables with only upper bounds:        0
Total number of equality constraints.................:      612
Total number of inequality constraints...............:        0
        inequality constraints with only lower bounds:        0
   inequality constraints with lower and upper bounds:        0
        inequality constraints with only upper bounds:        0

iter    objective    inf_pr   inf_du lg(mu)  ||d||  lg(rg) alpha_du alpha_pr  ls
   0  0.0000000e+00 1.03e+00 1.43e-14  -1.0 0.00e+00    -  0.00e+00 0.00e+00   0
   1  8.4660007e+00 3.50e+00 8.94e+02  -1.0 4.02e+04    -  5.37e-01 9.90e-01h  1
   2  8.5162004e+00 3.29e+00 8.39e+02  -1.0 4.15e+03    -  7.23e-01 6.19e-02h  5
   3  9.0192621e+00 3.72e+00 1.98e+02  -1.0 4.07e+03  -4.0 8.10e-01 9.90e-01h  1
   4  9.1551885e+00 2.78e+00 5.01e+04  -1.0 2.27e+03    -  7.18e-01 2.47e-01h  3
   5  9.1708791e+00 2.12e+00 1.43e+05  -1.0 3.96e+02  -2.7 9.90e-01 2.47e-01h  3
   6  9.1708908e+00 2.12e+00 3.29e+05  -1.0 2.99e+02  -3.1 9.90e-01 2.42e-04h 13
   7  9.1709374e+00 2.11e+00 5.15e+05  -1.0 2.99e+02  -2.7 9.90e-01 9.67e-04h 11
   8  9.1817718e+00 7.49e+01 4.06e+05  -1.0 8.58e+02  -3.2 2.12e-01 2.12e-01s 21
   9  9.2109602e+00 3.50e+00 4.13e+03  -1.0 2.39e+02  -3.7 9.90e-01 9.90e-01s 21
iter    objective    inf_pr   inf_du lg(mu)  ||d||  lg(rg) alpha_du alpha_pr  ls
  10  8.8113710e+00 1.17e+00 1.58e+02  -1.0 1.76e+04    -  9.90e-01 9.90e-01s 21
  11  8.8341243e+00 1.60e-01 2.39e+09  -1.0 6.09e+01  -4.2 1.00e+00 0.00e+00S 21
  12  9.7415862e+00 2.01e-01 2.42e+09  -1.0 2.76e+03  -4.6 1.00e+00 9.90e-01h  1
  13  9.0166847e+00 1.12e-01 2.39e+11  -1.0 2.02e+03  -5.1 1.00e+00 9.90e-01H  1
In iteration 13, 31 Slacks too small, adjusting variable bounds
  14  9.0060575e+00 1.72e-03 2.39e+13  -1.0 3.91e+01  -5.6 1.00e+00 9.90e-01h  1
  15  8.3872835e+00 2.63e-01 1.18e+15  -1.0 8.95e+03    -  1.00e+00 5.00e-01f  2
  16  8.5272696e+00 5.52e-02 3.86e+03  -1.0 1.79e+03  -3.4 1.00e+00 1.00e+00h  1
  17  8.5050487e+00 5.28e-04 6.46e+01  -2.5 5.86e+01  -3.8 1.00e+00 1.00e+00h  1
  18  8.5049000e+00 4.47e-07 2.23e-03  -5.7 6.53e-01  -4.3 1.00e+00 1.00e+00h  1
  19  8.5044865e+00 3.35e-06 3.22e-05  -8.6 1.96e+00  -4.8 1.00e+00 1.00e+00h  1
iter    objective    inf_pr   inf_du lg(mu)  ||d||  lg(rg) alpha_du alpha_pr  ls
  20  8.5032485e+00 2.98e-05 3.21e-05  -8.6 5.86e+00  -5.3 1.00e+00 1.00e+00h  1
  21  8.4995563e+00 2.59e-04 3.20e-05  -8.6 1.75e+01  -5.7 1.00e+00 1.00e+00h  1
  22  8.4886720e+00 2.11e-03 3.17e-05  -8.6 5.20e+01  -6.2 1.00e+00 1.00e+00h  1
  23  8.4576742e+00 1.45e-02 3.07e-05  -8.6 1.51e+02  -6.7 1.00e+00 1.00e+00h  1
  24  8.3777257e+00 6.46e-02 6.87e-04  -8.6 4.15e+02  -7.2 1.00e+00 1.00e+00h  1
  25  8.3775399e+00 1.60e-03 8.59e-03  -8.6 2.26e+00  -4.0 1.00e+00 1.00e+00h  1
  26  8.3772872e+00 5.15e-05 9.28e-04  -8.6 9.90e-01  -4.5 1.00e+00 1.00e+00h  1
  27  8.3771176e+00 1.88e-05 9.86e-04  -8.6 1.01e+00  -4.1 1.00e+00 1.00e+00h  1
  28  7.9772861e+00 5.04e+01 9.33e-02  -8.6 4.37e+03    -  1.00e+00 1.00e+00f  1
  29  7.9781126e+00 1.87e+01 3.02e-03  -8.6 7.69e+01    -  1.00e+00 1.00e+00h  1
iter    objective    inf_pr   inf_du lg(mu)  ||d||  lg(rg) alpha_du alpha_pr  ls
  30  7.9780265e+00 6.75e+00 2.77e-03  -8.6 4.23e+01    -  1.00e+00 1.00e+00h  1
  31  7.9781122e+00 3.86e+00 1.38e-02  -8.6 7.99e+01    -  1.00e+00 1.00e+00h  1
  32  7.9781212e+00 2.33e+00 1.93e-02  -8.6 1.41e+02    -  1.00e+00 5.00e-01h  2
  33  7.9781169e+00 2.58e+00 2.15e-02  -8.6 1.04e+02    -  1.00e+00 1.00e+00h  1
  34  7.9781618e+00 1.67e+00 2.13e-02  -8.6 1.04e+02    -  1.00e+00 5.00e-01h  2
  35  7.9782766e+00 1.62e+00 2.05e-02  -8.6 1.12e+03    -  4.50e-01 3.35e-02h  5
  36  7.9787624e+00 1.54e+00 1.95e-02  -8.6 1.57e+03    -  1.00e+00 5.32e-02h  4
  37  7.9786977e+00 1.59e+00 1.30e-01  -8.6 1.03e+03  -4.6 1.00e+00 1.42e-02h  5
  38  7.9785635e+00 1.53e+00 1.95e-01  -8.6 1.21e+03    -  4.84e-01 2.50e-01h  3
  39  7.9807710e+00 1.45e+00 1.23e-01  -8.6 3.25e+03    -  9.74e-01 5.95e-02h  5
iter    objective    inf_pr   inf_du lg(mu)  ||d||  lg(rg) alpha_du alpha_pr  ls
  40  8.2958466e+00 2.55e+00 1.60e+01  -8.6 1.03e+04    -  1.04e-01 3.38e-01h  2
  41  8.3316142e+00 1.64e+00 7.72e+00  -8.6 2.26e+03    -  1.00e+00 5.00e-01h  2
  42  8.2662658e+00 5.43e-01 1.15e+00  -8.6 4.22e+02    -  1.00e+00 1.00e+00h  1
  43  8.1643777e+00 1.60e+00 9.84e-01  -8.6 1.16e+03    -  1.00e+00 1.00e+00h  1
  44  8.1447928e+00 7.41e-01 3.42e-02  -8.6 3.42e+02    -  1.00e+00 1.00e+00h  1
  45  8.1388410e+00 1.17e+00 3.65e-01  -8.6 6.04e+01    -  1.00e+00 1.00e+00h  1
  46  8.1420238e+00 8.24e-01 6.33e-02  -8.6 6.39e+01    -  1.00e+00 1.00e+00h  1
  47  8.1420183e+00 7.61e-01 1.53e-01  -8.6 7.25e+01    -  1.00e+00 5.00e-01h  2
  48  8.1420222e+00 7.57e-01 1.45e-01  -8.6 7.05e+02    -  1.00e+00 5.72e-03h  8
  49  8.1420235e+00 7.56e-01 1.45e-01  -8.6 2.85e+03    -  1.00e+00 4.23e-04h 11
iter    objective    inf_pr   inf_du lg(mu)  ||d||  lg(rg) alpha_du alpha_pr  ls
  50  8.1420237e+00 7.56e-01 1.44e-01  -8.6 3.71e+03    -  6.55e-01 4.82e-05h 14
  51  8.1420237e+00 7.56e-01 1.44e-01  -8.6 3.84e+03    -  1.00e+00 1.19e-05h 16
  52r 8.1420237e+00 7.56e-01 1.00e+03  -0.1 0.00e+00    -  0.00e+00 3.70e-07R 21
  53r 8.1417837e+00 6.59e-01 9.92e+02  -0.1 4.25e+03    -  4.80e-02 6.95e-03f  1
  54  8.1416319e+00 1.03e+00 1.52e-03  -8.6 7.10e+05    -  2.67e-04 5.29e-05h  4
  55  7.8447388e+00 1.82e+03 8.08e-02  -8.6 5.90e+03    -  3.12e-01 4.30e-01h  1
  56  7.8391156e+00 7.91e+02 3.42e+02  -8.6 3.02e+03  -5.0 1.00e+00 1.00e+00h  1
  57  7.5947650e+00 6.08e+02 2.17e+04  -8.6 3.64e+04  -5.5 2.65e-01 2.89e-01h  2
  58  7.8070873e+00 5.76e+02 4.87e+04  -8.6 5.60e+04  -6.0 2.17e-01 5.54e-02h  4
  59  8.1168849e+00 5.60e+02 3.28e+05  -8.6 5.70e+04  -5.6 1.00e+00 2.83e-02h  5
iter    objective    inf_pr   inf_du lg(mu)  ||d||  lg(rg) alpha_du alpha_pr  ls
  60  8.1383536e+00 5.59e+02 3.59e+05  -8.6 5.69e+04  -6.0 3.20e-01 2.89e-03h  8
  61  8.1410199e+00 5.59e+02 4.41e+05  -8.6 5.70e+04  -5.6 1.00e+00 2.11e-04h 12
  62  1.9428081e+01 3.43e+02 4.31e+11  -8.6 5.98e+04  -6.1 3.11e-01 3.48e-01h  1
  63  1.9428080e+01 3.36e+02 5.14e+19  -8.6 6.29e+02   4.7 5.74e-04 2.00e-02h  1
Scaling factors are invalid - setting them all to 1.
Scaling factors are invalid - setting them all to 1.
Scaling factors are invalid - setting them all to 1.
Scaling factors are invalid - setting them all to 1.
MA27BD returned iflag=-4 and requires more memory.
 Increase liw from 34795 to 69590 and la from 37195 to 74418 and factorize again.
Scaling factors are invalid - setting them all to 1.
Scaling factors are invalid - setting them all to 1.
Scaling factors are invalid - setting them all to 1.
MA27BD returned iflag=-4 and requires more memory.
 Increase liw from 69590 to 139180 and la from 74418 to 155316 and factorize again.
Scaling factors are invalid - setting them all to 1.
Scaling factors are invalid - setting them all to 1.
Scaling factors are invalid - setting them all to 1.
Scaling factors are invalid - setting them all to 1.
Scaling factors are invalid - setting them all to 1.
Scaling factors are invalid - setting them all to 1.
Scaling factors are invalid - setting them all to 1.
Scaling factors are invalid - setting them all to 1.
Scaling factors are invalid - setting them all to 1.
Scaling factors are invalid - setting them all to 1.
WARNING: Problem in step computation; switching to emergency mode.
  64r 1.9428080e+01 3.36e+02 1.00e+03   2.5 0.00e+00  19.9 0.00e+00 0.00e+00R  1
  65r 1.9428080e+01 3.36e+02 3.15e+08   2.5 6.50e+10    -  1.19e-07 3.23e-09f  1
  66r 1.9428080e+01 3.36e+02 3.12e+08   2.5 5.86e+01   4.0 1.14e-02 7.50e-03f  1
  67r 1.9428080e+01 3.35e+02 3.05e+08   2.5 8.59e+00   3.5 2.08e-02 2.08e-01f  1
  68r 1.9428080e+01 3.35e+02 1.69e+14   2.5 7.63e+00   3.9 2.33e-02 1.23e-01F  1
WARNING: Problem in step computation; switching to emergency mode.
  69r 1.9428080e+01 3.35e+02 1.69e+14   2.5 7.63e+00  19.6 0.00e+00 0.00e+00R  1
WARNING: Problem in step computation; switching to emergency mode.
Restoration phase is called at point that is almost feasible,
  with constraint violation 0.000000e+00. Abort.
Restoration phase in the restoration phase failed.

Number of Iterations....: 69

                                   (scaled)                 (unscaled)
Objective...............:   1.9428079653141715e+01    1.9428079653141715e+01
Dual infeasibility......:   1.6892803163757456e+14    1.6892803163757456e+14
Constraint violation....:   3.3515502288465063e+02    3.3515502288465063e+02
Complementarity.........:   2.9701987063016096e+05    2.9701987063016096e+05
Overall NLP error.......:   9.0735864093748291e+10    1.6892803163757456e+14


Number of objective function evaluations             = 264
Number of objective gradient evaluations             = 65
Number of equality constraint evaluations            = 264
Number of inequality constraint evaluations          = 0
Number of equality constraint Jacobian evaluations   = 71
Number of inequality constraint Jacobian evaluations = 0
Number of Lagrangian Hessian evaluations             = 70
Total CPU secs in IPOPT (w/o function evaluations)   =      0.550
Total CPU secs in NLP function evaluations           =      3.595

EXIT: Restoration Failed!
